nbNodes = 12;
nbVehi = 3;
nbServi = 4;

e = 
 [|    0,  120,   60,  249,  262,  427,  255,  433,  337,   97,  231,    0,
 |    0,   22,   65,  436,    9,  449,  467,  161,  233,  396,  298,    0,
 |    0,  242,  133,  170,  256,  116,  111,  454,  116,  249,  160,    0,
 |    0,  110,  320,  238,  231,  101,   44,  150,   71,  183,  123,    0,
 |];

l = 
 [| 480, 239, 123, 325, 364, 512, 326, 553, 440, 214, 307, 480,
 | 480, 110, 151, 550,  85, 550, 562, 248, 339, 496, 408, 480,
 | 480, 332, 247, 243, 330, 200, 218, 556, 200, 327, 261, 480,
 | 480, 220, 422, 355, 293, 219, 148, 267, 188, 258, 203, 480,
 |];

a = 
 [|  1,  1,  1,  1,
 |  1,  1,  1,  1,
 |  1,  1,  1,  1,
 |];

p = array3d(1..nbNodes,1..nbVehi,1..nbServi,
[  0,  0,  0,  0,	  0,  0,  0,  0,	  0,  0,  0,  0,	
 52, 22, 53, 49,	 21, 53, 35, 27,	 14, 17, 41, 53,	
 10, 24, 39, 29,	 13, 17, 31, 22,	 31, 12, 12, 32,	
 19, 28, 10, 31,	 31, 20, 32, 22,	 37, 35, 21, 28,	
 38, 40, 29, 28,	 25, 14, 37, 25,	 26, 35, 11, 30,	
 46, 23, 44, 47,	 41, 49, 51, 50,	 26, 13, 23, 33,	
 25, 37, 42, 25,	 14, 30, 28, 38,	 25, 39, 40, 20,	
 42, 52, 11, 14,	 30, 47, 42, 11,	 36, 40, 34, 19,	
 12, 45, 36, 28,	 49, 47, 50, 13,	 33, 17, 28, 21,	
 27, 20, 45, 12,	 23, 29, 10, 42,	 41, 12, 44, 32,	
 15, 35, 43, 19,	 34, 35, 34, 16,	 43, 40, 13, 18,	
  0,  0,  0,  0,	  0,  0,  0,  0,	  0,  0,  0,  0,	
]);

rs = 
[|true,true,true,true,
 |false,true,false,false,
 |false,false,false,true,
 |false,false,false,true,
 |true,false,false,false,
 |false,true,false,false,
 |false,false,true,false,
 |false,false,false,true,
 |true,false,false,false,
 |false,false,true,false,
 |false,true,false,false,
 |true,true,true,true,
 |];

d=[|0, 28, 15, 16, 11, 16, 0, 15, 3, 6, 6, 0, 
|28, 0, 41, 42, 22, 37, 28, 15, 28, 27, 34, 28, 
|15, 41, 0, 1, 26, 24, 15, 30, 13, 19, 10, 15, 
|16, 42, 1, 0, 27, 24, 16, 31, 14, 20, 11, 16, 
|11, 22, 26, 27, 0, 14, 11, 7, 13, 6, 15, 11, 
|16, 37, 24, 24, 14, 0, 16, 21, 18, 11, 15, 16, 
|0, 28, 15, 16, 11, 16, 0, 15, 3, 6, 6, 0, 
|15, 15, 30, 31, 7, 21, 15, 0, 16, 13, 20, 15, 
|3, 28, 13, 14, 13, 18, 3, 16, 0, 9, 6, 3, 
|6, 27, 19, 20, 6, 11, 6, 13, 9, 0, 9, 6, 
|6, 34, 10, 11, 15, 15, 6, 20, 6, 9, 0, 6, 
|0, 28, 15, 16, 11, 16, 0, 15, 3, 6, 6, 0, 
|];
